 $CONTRL ICHARG=0 MULT=1 SCFTYP=MCSCF MPLEVL=2 RUNTYP=ENERGY  $END
 $SYSTEM MWORDS=200 MEMDDI=300
         TIMLIM=9999999999999999999999999 $END
 $BASIS  GBASIS=N31 NGAUSS=6 NDFUNC=1 $END
 $GUESS  GUESS=MOREAD NORB=33
 $END
 $MCSCF CISTEP=ALDET MAXIT=200 FULLNR=.T. $END
 $DET CLOBBR=.T. NHGSS=1000 NSTGSS=40 MXXPAN=80
NCORE=25 NACT=8 NELS=8  STSYM=A  NSTATE=20
PURES=.TRUE. WSTATE(1)=1,1,1,1,1 $END
 $MRMP MRPT=MCQDPT $END
 $MCQDPT STSYM=A KSTATE(1)=1,1,1,1,1 $END
 $DATA
 benzopyran
 C1
