 $CONTRL ICHARG=0 MULT=1 SCFTYP=MCSCF RUNTYP=ENERGY  $END
 $SYSTEM MWORDS=200 MEMDDI=300
         TIMLIM=9999999999999999999999999 $END
 $BASIS  GBASIS=N31 NGAUSS=6 NDFUNC=1 $END
 $GUESS  GUESS=MOREAD NORB=34
NORDER=1 IORDER(25)=26,25,27,28,29,30,31,32,34,33
 $END
 $MCSCF CISTEP=ALDET MAXIT=200 FULLNR=.T. $END
 $DET CLOBBR=.T. NHGSS=1000 NSTGSS=40 MXXPAN=80
NCORE=25 NACT=8 NELS=8  STSYM=A  NSTATE=20
PURES=.TRUE. WSTATE(1)=1,1,1,1,1 $END
 $DATA
 benzopyran
 C1
 C        6.0          0.61594600   -0.33127800    0.00000000     
 C        6.0         -0.61594300    0.33119400    0.00000000     
 C        6.0          1.87555600    0.30868200    0.00000000     
 C        6.0         -1.87556600   -0.30874400    0.00000000     
 C        6.0          3.10635700   -0.39112300    0.00000000     
 C        6.0         -3.10632800    0.39112300    0.00000000     
 C        6.0          4.35965200    0.18413500   -0.00000000     
 C        6.0         -4.35966900   -0.18404800   -0.00000000     
 H        1.0          0.60577700   -1.41317500    0.00000000     
 H        1.0         -0.60576400    1.41309100    0.00000000     
 H        1.0          1.89942200    1.38979800   -0.00000000     
 H        1.0         -1.89947000   -1.38985900   -0.00000000     
 H        1.0         -3.04945000    1.47184100    0.00000000     
 H        1.0          3.04954300   -1.47184500    0.00000000     
 H        1.0         -4.48643400   -1.25500700   -0.00000000     
 H        1.0          4.48634200    1.25510300   -0.00000000     
 H        1.0         -5.24901600    0.42196400   -0.00000000     
 H        1.0          5.24904400   -0.42181200   -0.00000000     
 $END
